p cnf 1909
-25 -599
-26 -602
-27 -605
-28 -608
-29 -611
-30 -614
-31 -617
-32 -620
-33 -623
-34 -626
-35 -629
-36 -632
-37 -635
-38 -638
-39 -641
-40 -644
-41 -647
-42 -650
-43 -653
-44 -656
-45 -659
-46 -662
-47 -665
-48 -668
-49 669
-50 670
-51 671
-52 672
-53 673
-54 674
-55 675
-56 676
-57 677
-58 678
-59 679
-60 680
-61 681
-62 682
-63 683
-64 684
-65 685
-66 686
-67 -26
-67 -27
26 27 67
-68 -28
-68 -29
28 29 68
-69 -30
-69 -31
30 31 69
-70 -32
-70 -33
32 33 70
-71 -34
-71 -35
34 35 71
-72 -36
-72 -37
36 37 72
-73 -38
-73 -39
38 39 73
-74 -40
-74 -41
40 41 74
-75 -42
-75 -43
42 43 75
-76 -44
-76 -45
44 45 76
-77 -46
-77 -47
46 47 77
-78 -48
-78 -49
48 49 78
-79 -50
-79 -51
50 51 79
-80 -52
-80 -53
52 53 80
-81 -54
-81 -55
54 55 81
-82 -56
-82 -57
56 57 82
-83 -58
-83 -59
58 59 83
-84 -60
-84 -61
60 61 84
-85 -62
-85 -63
62 63 85
-86 -64
-86 -65
64 65 86
-87 67
-87 68
-67 -68 87
-88 69
-88 70
-69 -70 88
-89 71
-89 72
-71 -72 89
-90 73
-90 74
-73 -74 90
-91 75
-91 76
-75 -76 91
-92 77
-92 78
-77 -78 92
-93 79
-93 80
-79 -80 93
-94 81
-94 82
-81 -82 94
-95 83
-95 84
-83 -84 95
-96 85
-96 86
-85 -86 96
-97 87
-97 88
-87 -88 97
-98 89
-98 90
-89 -90 98
-99 91
-99 92
-91 -92 99
-100 93
-100 94
-93 -94 100
-101 95
-101 96
-95 -96 101
-102 97
-102 98
-97 -98 102
-103 99
-103 100
-99 -100 103
-104 -66
-104 101
66 -101 104
-105 102
-105 103
-102 -103 105
-106 104
-106 105
-104 -105 106
-107 -25
-107 26
25 -26 107
-108 25
-108 -26
-25 26 108
-109 -107
-109 -108
107 108 109
-110 25
-110 26
-25 -26 110
-111 -25
-111 -109
25 109 111
-112 25
-112 109
-25 -109 112
-113 -111
-113 -112
111 112 113
-114 25
-114 -109
-25 109 114
-115 -110
-115 -114
110 114 115
-116 -26
-116 27
26 -27 116
-117 26
-117 -27
-26 27 117
-118 -116
-118 -117
116 117 118
-119 26
-119 27
-26 -27 119
-120 115
-120 -118
-115 118 120
-121 -115
-121 118
115 -118 121
-122 -120
-122 -121
120 121 122
-123 -115
-123 -118
115 118 123
-124 -119
-124 -123
119 123 124
-125 -27
-125 28
27 -28 125
-126 27
-126 -28
-27 28 126
-127 -125
-127 -126
125 126 127
-128 27
-128 28
-27 -28 128
-129 124
-129 -127
-124 127 129
-130 -124
-130 127
124 -127 130
-131 -129
-131 -130
129 130 131
-132 -124
-132 -127
124 127 132
-133 -128
-133 -132
128 132 133
-134 -28
-134 29
28 -29 134
-135 28
-135 -29
-28 29 135
-136 -134
-136 -135
134 135 136
-137 28
-137 29
-28 -29 137
-138 133
-138 -136
-133 136 138
-139 -133
-139 136
133 -136 139
-140 -138
-140 -139
138 139 140
-141 -133
-141 -136
133 136 141
-142 -137
-142 -141
137 141 142
-143 -29
-143 30
29 -30 143
-144 29
-144 -30
-29 30 144
-145 -143
-145 -144
143 144 145
-146 29
-146 30
-29 -30 146
-147 142
-147 -145
-142 145 147
-148 -142
-148 145
142 -145 148
-149 -147
-149 -148
147 148 149
-150 -142
-150 -145
142 145 150
-151 -146
-151 -150
146 150 151
-152 -30
-152 31
30 -31 152
-153 30
-153 -31
-30 31 153
-154 -152
-154 -153
152 153 154
-155 30
-155 31
-30 -31 155
-156 151
-156 -154
-151 154 156
-157 -151
-157 154
151 -154 157
-158 -156
-158 -157
156 157 158
-159 -151
-159 -154
151 154 159
-160 -155
-160 -159
155 159 160
-161 -31
-161 32
31 -32 161
-162 31
-162 -32
-31 32 162
-163 -161
-163 -162
161 162 163
-164 31
-164 32
-31 -32 164
-165 160
-165 -163
-160 163 165
-166 -160
-166 163
160 -163 166
-167 -165
-167 -166
165 166 167
-168 -160
-168 -163
160 163 168
-169 -164
-169 -168
164 168 169
-170 -32
-170 33
32 -33 170
-171 32
-171 -33
-32 33 171
-172 -170
-172 -171
170 171 172
-173 32
-173 33
-32 -33 173
-174 169
-174 -172
-169 172 174
-175 -169
-175 172
169 -172 175
-176 -174
-176 -175
174 175 176
-177 -169
-177 -172
169 172 177
-178 -173
-178 -177
173 177 178
-179 -33
-179 34
33 -34 179
-180 33
-180 -34
-33 34 180
-181 -179
-181 -180
179 180 181
-182 33
-182 34
-33 -34 182
-183 178
-183 -181
-178 181 183
-184 -178
-184 181
178 -181 184
-185 -183
-185 -184
183 184 185
-186 -178
-186 -181
178 181 186
-187 -182
-187 -186
182 186 187
-188 -34
-188 35
34 -35 188
-189 34
-189 -35
-34 35 189
-190 -188
-190 -189
188 189 190
-191 34
-191 35
-34 -35 191
-192 187
-192 -190
-187 190 192
-193 -187
-193 190
187 -190 193
-194 -192
-194 -193
192 193 194
-195 -187
-195 -190
187 190 195
-196 -191
-196 -195
191 195 196
-197 -35
-197 36
35 -36 197
-198 35
-198 -36
-35 36 198
-199 -197
-199 -198
197 198 199
-200 35
-200 36
-35 -36 200
-201 196
-201 -199
-196 199 201
-202 -196
-202 199
196 -199 202
-203 -201
-203 -202
201 202 203
-204 -196
-204 -199
196 199 204
-205 -200
-205 -204
200 204 205
-206 -36
-206 37
36 -37 206
-207 36
-207 -37
-36 37 207
-208 -206
-208 -207
206 207 208
-209 36
-209 37
-36 -37 209
-210 205
-210 -208
-205 208 210
-211 -205
-211 208
205 -208 211
-212 -210
-212 -211
210 211 212
-213 -205
-213 -208
205 208 213
-214 -209
-214 -213
209 213 214
-215 -37
-215 38
37 -38 215
-216 37
-216 -38
-37 38 216
-217 -215
-217 -216
215 216 217
-218 37
-218 38
-37 -38 218
-219 214
-219 -217
-214 217 219
-220 -214
-220 217
214 -217 220
-221 -219
-221 -220
219 220 221
-222 -214
-222 -217
214 217 222
-223 -218
-223 -222
218 222 223
-224 -38
-224 39
38 -39 224
-225 38
-225 -39
-38 39 225
-226 -224
-226 -225
224 225 226
-227 38
-227 39
-38 -39 227
-228 223
-228 -226
-223 226 228
-229 -223
-229 226
223 -226 229
-230 -228
-230 -229
228 229 230
-231 -223
-231 -226
223 226 231
-232 -227
-232 -231
227 231 232
-233 -39
-233 40
39 -40 233
-234 39
-234 -40
-39 40 234
-235 -233
-235 -234
233 234 235
-236 39
-236 40
-39 -40 236
-237 232
-237 -235
-232 235 237
-238 -232
-238 235
232 -235 238
-239 -237
-239 -238
237 238 239
-240 -232
-240 -235
232 235 240
-241 -236
-241 -240
236 240 241
-242 -40
-242 41
40 -41 242
-243 40
-243 -41
-40 41 243
-244 -242
-244 -243
242 243 244
-245 40
-245 41
-40 -41 245
-246 241
-246 -244
-241 244 246
-247 -241
-247 244
241 -244 247
-248 -246
-248 -247
246 247 248
-249 -241
-249 -244
241 244 249
-250 -245
-250 -249
245 249 250
-251 -41
-251 42
41 -42 251
-252 41
-252 -42
-41 42 252
-253 -251
-253 -252
251 252 253
-254 41
-254 42
-41 -42 254
-255 250
-255 -253
-250 253 255
-256 -250
-256 253
250 -253 256
-257 -255
-257 -256
255 256 257
-258 -250
-258 -253
250 253 258
-259 -254
-259 -258
254 258 259
-260 -42
-260 43
42 -43 260
-261 42
-261 -43
-42 43 261
-262 -260
-262 -261
260 261 262
-263 42
-263 43
-42 -43 263
-264 259
-264 -262
-259 262 264
-265 -259
-265 262
259 -262 265
-266 -264
-266 -265
264 265 266
-267 -259
-267 -262
259 262 267
-268 -263
-268 -267
263 267 268
-269 -43
-269 44
43 -44 269
-270 43
-270 -44
-43 44 270
-271 -269
-271 -270
269 270 271
-272 43
-272 44
-43 -44 272
-273 268
-273 -271
-268 271 273
-274 -268
-274 271
268 -271 274
-275 -273
-275 -274
273 274 275
-276 -268
-276 -271
268 271 276
-277 -272
-277 -276
272 276 277
-278 -44
-278 45
44 -45 278
-279 44
-279 -45
-44 45 279
-280 -278
-280 -279
278 279 280
-281 44
-281 45
-44 -45 281
-282 277
-282 -280
-277 280 282
-283 -277
-283 280
277 -280 283
-284 -282
-284 -283
282 283 284
-285 -277
-285 -280
277 280 285
-286 -281
-286 -285
281 285 286
-287 -45
-287 46
45 -46 287
-288 45
-288 -46
-45 46 288
-289 -287
-289 -288
287 288 289
-290 45
-290 46
-45 -46 290
-291 286
-291 -289
-286 289 291
-292 -286
-292 289
286 -289 292
-293 -291
-293 -292
291 292 293
-294 -286
-294 -289
286 289 294
-295 -290
-295 -294
290 294 295
-296 -46
-296 47
46 -47 296
-297 46
-297 -47
-46 47 297
-298 -296
-298 -297
296 297 298
-299 46
-299 47
-46 -47 299
-300 295
-300 -298
-295 298 300
-301 -295
-301 298
295 -298 301
-302 -300
-302 -301
300 301 302
-303 -295
-303 -298
295 298 303
-304 -299
-304 -303
299 303 304
-305 -47
-305 48
47 -48 305
-306 47
-306 -48
-47 48 306
-307 -305
-307 -306
305 306 307
-308 47
-308 48
-47 -48 308
-309 304
-309 -307
-304 307 309
-310 -304
-310 307
304 -307 310
-311 -309
-311 -310
309 310 311
-312 -304
-312 -307
304 307 312
-313 -308
-313 -312
308 312 313
-314 -48
-314 49
48 -49 314
-315 48
-315 -49
-48 49 315
-316 -314
-316 -315
314 315 316
-317 48
-317 49
-48 -49 317
-318 313
-318 -316
-313 316 318
-319 -313
-319 316
313 -316 319
-320 -318
-320 -319
318 319 320
-321 -313
-321 -316
313 316 321
-322 -317
-322 -321
317 321 322
-323 -49
-323 50
49 -50 323
-324 49
-324 -50
-49 50 324
-325 -323
-325 -324
323 324 325
-326 49
-326 50
-49 -50 326
-327 322
-327 -325
-322 325 327
-328 -322
-328 325
322 -325 328
-329 -327
-329 -328
327 328 329
-330 -322
-330 -325
322 325 330
-331 -326
-331 -330
326 330 331
-332 -50
-332 51
50 -51 332
-333 50
-333 -51
-50 51 333
-334 -332
-334 -333
332 333 334
-335 50
-335 51
-50 -51 335
-336 331
-336 -334
-331 334 336
-337 -331
-337 334
331 -334 337
-338 -336
-338 -337
336 337 338
-339 -331
-339 -334
331 334 339
-340 -335
-340 -339
335 339 340
-341 -51
-341 52
51 -52 341
-342 51
-342 -52
-51 52 342
-343 -341
-343 -342
341 342 343
-344 51
-344 52
-51 -52 344
-345 340
-345 -343
-340 343 345
-346 -340
-346 343
340 -343 346
-347 -345
-347 -346
345 346 347
-348 -340
-348 -343
340 343 348
-349 -344
-349 -348
344 348 349
-350 -52
-350 53
52 -53 350
-351 52
-351 -53
-52 53 351
-352 -350
-352 -351
350 351 352
-353 52
-353 53
-52 -53 353
-354 349
-354 -352
-349 352 354
-355 -349
-355 352
349 -352 355
-356 -354
-356 -355
354 355 356
-357 -349
-357 -352
349 352 357
-358 -353
-358 -357
353 357 358
-359 -53
-359 54
53 -54 359
-360 53
-360 -54
-53 54 360
-361 -359
-361 -360
359 360 361
-362 53
-362 54
-53 -54 362
-363 358
-363 -361
-358 361 363
-364 -358
-364 361
358 -361 364
-365 -363
-365 -364
363 364 365
-366 -358
-366 -361
358 361 366
-367 -362
-367 -366
362 366 367
-368 -54
-368 55
54 -55 368
-369 54
-369 -55
-54 55 369
-370 -368
-370 -369
368 369 370
-371 54
-371 55
-54 -55 371
-372 367
-372 -370
-367 370 372
-373 -367
-373 370
367 -370 373
-374 -372
-374 -373
372 373 374
-375 -367
-375 -370
367 370 375
-376 -371
-376 -375
371 375 376
-377 -55
-377 56
55 -56 377
-378 55
-378 -56
-55 56 378
-379 -377
-379 -378
377 378 379
-380 55
-380 56
-55 -56 380
-381 376
-381 -379
-376 379 381
-382 -376
-382 379
376 -379 382
-383 -381
-383 -382
381 382 383
-384 -376
-384 -379
376 379 384
-385 -380
-385 -384
380 384 385
-386 -56
-386 57
56 -57 386
-387 56
-387 -57
-56 57 387
-388 -386
-388 -387
386 387 388
-389 56
-389 57
-56 -57 389
-390 385
-390 -388
-385 388 390
-391 -385
-391 388
385 -388 391
-392 -390
-392 -391
390 391 392
-393 -385
-393 -388
385 388 393
-394 -389
-394 -393
389 393 394
-395 -57
-395 58
57 -58 395
-396 57
-396 -58
-57 58 396
-397 -395
-397 -396
395 396 397
-398 57
-398 58
-57 -58 398
-399 394
-399 -397
-394 397 399
-400 -394
-400 397
394 -397 400
-401 -399
-401 -400
399 400 401
-402 -394
-402 -397
394 397 402
-403 -398
-403 -402
398 402 403
-404 -58
-404 59
58 -59 404
-405 58
-405 -59
-58 59 405
-406 -404
-406 -405
404 405 406
-407 58
-407 59
-58 -59 407
-408 403
-408 -406
-403 406 408
-409 -403
-409 406
403 -406 409
-410 -408
-410 -409
408 409 410
-411 -403
-411 -406
403 406 411
-412 -407
-412 -411
407 411 412
-413 -59
-413 60
59 -60 413
-414 59
-414 -60
-59 60 414
-415 -413
-415 -414
413 414 415
-416 59
-416 60
-59 -60 416
-417 412
-417 -415
-412 415 417
-418 -412
-418 415
412 -415 418
-419 -417
-419 -418
417 418 419
-420 -412
-420 -415
412 415 420
-421 -416
-421 -420
416 420 421
-422 -60
-422 61
60 -61 422
-423 60
-423 -61
-60 61 423
-424 -422
-424 -423
422 423 424
-425 60
-425 61
-60 -61 425
-426 421
-426 -424
-421 424 426
-427 -421
-427 424
421 -424 427
-428 -426
-428 -427
426 427 428
-429 -421
-429 -424
421 424 429
-430 -425
-430 -429
425 429 430
-431 -61
-431 62
61 -62 431
-432 61
-432 -62
-61 62 432
-433 -431
-433 -432
431 432 433
-434 61
-434 62
-61 -62 434
-435 430
-435 -433
-430 433 435
-436 -430
-436 433
430 -433 436
-437 -435
-437 -436
435 436 437
-438 -430
-438 -433
430 433 438
-439 -434
-439 -438
434 438 439
-440 -62
-440 63
62 -63 440
-441 62
-441 -63
-62 63 441
-442 -440
-442 -441
440 441 442
-443 62
-443 63
-62 -63 443
-444 439
-444 -442
-439 442 444
-445 -439
-445 442
439 -442 445
-446 -444
-446 -445
444 445 446
-447 -439
-447 -442
439 442 447
-448 -443
-448 -447
443 447 448
-449 -63
-449 64
63 -64 449
-450 63
-450 -64
-63 64 450
-451 -449
-451 -450
449 450 451
-452 63
-452 64
-63 -64 452
-453 448
-453 -451
-448 451 453
-454 -448
-454 451
448 -451 454
-455 -453
-455 -454
453 454 455
-456 -448
-456 -451
448 451 456
-457 -452
-457 -456
452 456 457
-458 -64
-458 65
64 -65 458
-459 64
-459 -65
-64 65 459
-460 -458
-460 -459
458 459 460
-461 64
-461 65
-64 -65 461
-462 457
-462 -460
-457 460 462
-463 -457
-463 460
457 -460 463
-464 -462
-464 -463
462 463 464
-465 -457
-465 -460
457 460 465
-466 -461
-466 -465
461 465 466
-467 -65
-467 66
65 -66 467
-468 65
-468 -66
-65 66 468
-469 -467
-469 -468
467 468 469
-470 65
-470 66
-65 -66 470
-471 466
-471 -469
-466 469 471
-472 -466
-472 469
466 -469 472
-473 -471
-473 -472
471 472 473
-474 -466
-474 -469
466 469 474
-475 -470
-475 -474
470 474 475
-476 25
-476 -113
-25 113 476
-477 -25
-477 27
25 -27 477
-478 -476
-478 -477
476 477 478
-479 25
-479 -122
-25 122 479
-480 -25
-480 28
25 -28 480
-481 -479
-481 -480
479 480 481
-482 25
-482 -131
-25 131 482
-483 -25
-483 29
25 -29 483
-484 -482
-484 -483
482 483 484
-485 25
-485 -140
-25 140 485
-486 -25
-486 30
25 -30 486
-487 -485
-487 -486
485 486 487
-488 25
-488 -149
-25 149 488
-489 -25
-489 31
25 -31 489
-490 -488
-490 -489
488 489 490
-491 25
-491 -158
-25 158 491
-492 -25
-492 32
25 -32 492
-493 -491
-493 -492
491 492 493
-494 25
-494 -167
-25 167 494
-495 -25
-495 33
25 -33 495
-496 -494
-496 -495
494 495 496
-497 25
-497 -176
-25 176 497
-498 -25
-498 34
25 -34 498
-499 -497
-499 -498
497 498 499
-500 25
-500 -185
-25 185 500
-501 -25
-501 35
25 -35 501
-502 -500
-502 -501
500 501 502
-503 25
-503 -194
-25 194 503
-504 -25
-504 36
25 -36 504
-505 -503
-505 -504
503 504 505
-506 25
-506 -203
-25 203 506
-507 -25
-507 37
25 -37 507
-508 -506
-508 -507
506 507 508
-509 25
-509 -212
-25 212 509
-510 -25
-510 38
25 -38 510
-511 -509
-511 -510
509 510 511
-512 25
-512 -221
-25 221 512
-513 -25
-513 39
25 -39 513
-514 -512
-514 -513
512 513 514
-515 25
-515 -230
-25 230 515
-516 -25
-516 40
25 -40 516
-517 -515
-517 -516
515 516 517
-518 25
-518 -239
-25 239 518
-519 -25
-519 41
25 -41 519
-520 -518
-520 -519
518 519 520
-521 25
-521 -248
-25 248 521
-522 -25
-522 42
25 -42 522
-523 -521
-523 -522
521 522 523
-524 25
-524 -257
-25 257 524
-525 -25
-525 43
25 -43 525
-526 -524
-526 -525
524 525 526
-527 25
-527 -266
-25 266 527
-528 -25
-528 44
25 -44 528
-529 -527
-529 -528
527 528 529
-530 25
-530 -275
-25 275 530
-531 -25
-531 45
25 -45 531
-532 -530
-532 -531
530 531 532
-533 25
-533 -284
-25 284 533
-534 -25
-534 46
25 -46 534
-535 -533
-535 -534
533 534 535
-536 25
-536 -293
-25 293 536
-537 -25
-537 47
25 -47 537
-538 -536
-538 -537
536 537 538
-539 25
-539 -302
-25 302 539
-540 -25
-540 48
25 -48 540
-541 -539
-541 -540
539 540 541
-542 25
-542 -311
-25 311 542
-543 -25
-543 49
25 -49 543
-544 -542
-544 -543
542 543 544
-545 25
-545 -320
-25 320 545
-546 -25
-546 50
25 -50 546
-547 -545
-547 -546
545 546 547
-548 25
-548 -329
-25 329 548
-549 -25
-549 51
25 -51 549
-550 -548
-550 -549
548 549 550
-551 25
-551 -338
-25 338 551
-552 -25
-552 52
25 -52 552
-553 -551
-553 -552
551 552 553
-554 25
-554 -347
-25 347 554
-555 -25
-555 53
25 -53 555
-556 -554
-556 -555
554 555 556
-557 25
-557 -356
-25 356 557
-558 -25
-558 54
25 -54 558
-559 -557
-559 -558
557 558 559
-560 25
-560 -365
-25 365 560
-561 -25
-561 55
25 -55 561
-562 -560
-562 -561
560 561 562
-563 25
-563 -374
-25 374 563
-564 -25
-564 56
25 -56 564
-565 -563
-565 -564
563 564 565
-566 25
-566 -383
-25 383 566
-567 -25
-567 57
25 -57 567
-568 -566
-568 -567
566 567 568
-569 25
-569 -392
-25 392 569
-570 -25
-570 58
25 -58 570
-571 -569
-571 -570
569 570 571
-572 25
-572 -401
-25 401 572
-573 -25
-573 59
25 -59 573
-574 -572
-574 -573
572 573 574
-575 25
-575 -410
-25 410 575
-576 -25
-576 60
25 -60 576
-577 -575
-577 -576
575 576 577
-578 25
-578 -419
-25 419 578
-579 -25
-579 61
25 -61 579
-580 -578
-580 -579
578 579 580
-581 25
-581 -428
-25 428 581
-582 -25
-582 62
25 -62 582
-583 -581
-583 -582
581 582 583
-584 25
-584 -437
-25 437 584
-585 -25
-585 63
25 -63 585
-586 -584
-586 -585
584 585 586
-587 25
-587 -446
-25 446 587
-588 -25
-588 64
25 -64 588
-589 -587
-589 -588
587 588 589
-590 25
-590 -455
-25 455 590
-591 -25
-591 65
25 -65 591
-592 -590
-592 -591
590 591 592
-593 25
-593 -464
-25 464 593
-594 -25
-594 66
25 -66 594
-595 -593
-595 -594
593 594 595
-596 25
-596 -473
-25 473 596
-597 1
-597 106
-1 -106 597
-598 -106
-598 107
106 -107 598
-599 -597
-599 -598
597 598 599
-600 2
-600 106
-2 -106 600
-601 -106
-601 -478
106 478 601
-602 -600
-602 -601
600 601 602
-603 3
-603 106
-3 -106 603
-604 -106
-604 -481
106 481 604
-605 -603
-605 -604
603 604 605
-606 4
-606 106
-4 -106 606
-607 -106
-607 -484
106 484 607
-608 -606
-608 -607
606 607 608
-609 5
-609 106
-5 -106 609
-610 -106
-610 -487
106 487 610
-611 -609
-611 -610
609 610 611
-612 6
-612 106
-6 -106 612
-613 -106
-613 -490
106 490 613
-614 -612
-614 -613
612 613 614
-615 7
-615 106
-7 -106 615
-616 -106
-616 -493
106 493 616
-617 -615
-617 -616
615 616 617
-618 8
-618 106
-8 -106 618
-619 -106
-619 -496
106 496 619
-620 -618
-620 -619
618 619 620
-621 9
-621 106
-9 -106 621
-622 -106
-622 -499
106 499 622
-623 -621
-623 -622
621 622 623
-624 10
-624 106
-10 -106 624
-625 -106
-625 -502
106 502 625
-626 -624
-626 -625
624 625 626
-627 11
-627 106
-11 -106 627
-628 -106
-628 -505
106 505 628
-629 -627
-629 -628
627 628 629
-630 12
-630 106
-12 -106 630
-631 -106
-631 -508
106 508 631
-632 -630
-632 -631
630 631 632
-633 13
-633 106
-13 -106 633
-634 -106
-634 -511
106 511 634
-635 -633
-635 -634
633 634 635
-636 14
-636 106
-14 -106 636
-637 -106
-637 -514
106 514 637
-638 -636
-638 -637
636 637 638
-639 15
-639 106
-15 -106 639
-640 -106
-640 -517
106 517 640
-641 -639
-641 -640
639 640 641
-642 16
-642 106
-16 -106 642
-643 -106
-643 -520
106 520 643
-644 -642
-644 -643
642 643 644
-645 17
-645 106
-17 -106 645
-646 -106
-646 -523
106 523 646
-647 -645
-647 -646
645 646 647
-648 18
-648 106
-18 -106 648
-649 -106
-649 -526
106 526 649
-650 -648
-650 -649
648 649 650
-651 19
-651 106
-19 -106 651
-652 -106
-652 -529
106 529 652
-653 -651
-653 -652
651 652 653
-654 20
-654 106
-20 -106 654
-655 -106
-655 -532
106 532 655
-656 -654
-656 -655
654 655 656
-657 21
-657 106
-21 -106 657
-658 -106
-658 -535
106 535 658
-659 -657
-659 -658
657 658 659
-660 22
-660 106
-22 -106 660
-661 -106
-661 -538
106 538 661
-662 -660
-662 -661
660 661 662
-663 23
-663 106
-23 -106 663
-664 -106
-664 -541
106 541 664
-665 -663
-665 -664
663 664 665
-666 24
-666 106
-24 -106 666
-667 -106
-667 -544
106 544 667
-668 -666
-668 -667
666 667 668
-669 -106
-669 -547
106 547 669
-670 -106
-670 -550
106 550 670
-671 -106
-671 -553
106 553 671
-672 -106
-672 -556
106 556 672
-673 -106
-673 -559
106 559 673
-674 -106
-674 -562
106 562 674
-675 -106
-675 -565
106 565 675
-676 -106
-676 -568
106 568 676
-677 -106
-677 -571
106 571 677
-678 -106
-678 -574
106 574 678
-679 -106
-679 -577
106 577 679
-680 -106
-680 -580
106 580 680
-681 -106
-681 -583
106 583 681
-682 -106
-682 -586
106 586 682
-683 -106
-683 -589
106 589 683
-684 -106
-684 -592
106 592 684
-685 -106
-685 -595
106 595 685
-686 -106
-686 596
106 -596 686
-687 -66
-687 475
66 -475 687
-688 25
-688 -687
-25 687 688
688
